0 3 50 18 55 25 31 10 0
0 12 39 9 32 40 0
0 51 16 63 49 24 44 17 0
0 35 14 53 11 38 58 26 0
0 34 46 8 52 27 4 0
0 45 29 57 13 54 19 7 0
0 6 33 1 43 42 41 56 23 0
0 2 62 22 28 21 30 0
0 48 47 36 37 20 15 5 0
0 0
